Geographic Exponential Decay
80 45 9 158 189 63 55 106 114 86 156 39 174 306 316 253 150 129 27 180 193 222 242 227 166 207 81 148 315 144 304 194 36 159 252 91 38 240 184 213 229 80 74 291 264 288 281 35 197 67 295 100 87 303 305 214 239 312 1 290 228 268 136 105 196 210 95 42 29 143 308 79 122 309 84 230 233 278 236 25 57
p edge 320 1327
e 0 78 1.0
e 1 65 41.0
e 1 74 2.0
e 1 241 41.0
e 1 57 22.0
e 1 162 45.0
e 1 211 68.0
e 1 163 14.0
e 1 204 15.0
e 1 292 26.0
e 1 135 24.0
e 1 221 81.0
e 1 189 30.0
e 1 284 78.0
e 1 154 43.0
e 1 112 100.0
e 1 109 7.0
e 1 164 45.0
e 2 179 1.0
e 3 176 1.0
e 4 92 2.0
e 5 312 66.0
e 6 308 59.0
e 7 277 1.0
e 8 198 2.0
e 9 147 29.0
e 9 116 48.0
e 9 291 4.0
e 9 219 34.0
e 9 250 60.0
e 9 111 64.0
e 9 45 76.0
e 9 11 52.0
e 9 136 53.0
e 9 178 54.0
e 9 313 78.0
e 9 292 63.0
e 9 244 24.0
e 9 127 53.0
e 9 269 24.0
e 9 272 44.0
e 9 167 9.0
e 10 296 2.0
e 12 64 1.0
e 12 60 6.0
e 12 65 7.0
e 13 298 5.0
e 13 55 33.0
e 14 282 3.0
e 14 93 3.0
e 15 313 1.0
e 15 112 1.0
e 16 221 3.0
e 17 37 2.0
e 18 300 2.0
e 19 246 7.0
e 19 183 10.0
e 19 120 11.0
e 20 194 69.0
e 20 178 1.0
e 21 20 1.0
e 22 111 2.0
e 23 194 12.0
e 24 25 97.0
e 24 258 1.0
e 25 226 72.0
e 25 16 86.0
e 25 93 91.0
e 25 214 51.0
e 25 240 71.0
e 25 203 21.0
e 25 315 55.0
e 25 90 34.0
e 25 115 40.0
e 25 273 33.0
e 25 241 91.0
e 25 52 79.0
e 25 238 10.0
e 25 174 42.0
e 25 5 36.0
e 25 41 2.0
e 26 7 4.0
e 26 231 4.0
e 27 178 45.0
e 27 140 4.0
e 27 213 34.0
e 27 98 88.0
e 27 138 22.0
e 27 112 78.0
e 27 255 28.0
e 27 75 25.0
e 27 243 13.0
e 27 232 49.0
e 27 60 33.0
e 27 167 100.0
e 27 312 24.0
e 27 221 75.0
e 27 44 15.0
e 27 162 9.0
e 27 166 91.0
e 28 16 2.0
e 29 316 31.0
e 29 21 46.0
e 29 17 40.0
e 29 314 83.0
e 29 32 13.0
e 29 40 49.0
e 29 311 4.0
e 29 60 73.0
e 29 213 9.0
e 29 6 48.0
e 29 317 93.0
e 29 280 70.0
e 29 196 80.0
e 29 35 76.0
e 29 100 30.0
e 29 28 39.0
e 29 208 26.0
e 30 56 1.0
e 31 22 2.0
e 33 83 1.0
e 34 83 12.0
e 34 181 3.0
e 35 198 42.0
e 35 12 5.0
e 35 217 61.0
e 35 107 64.0
e 35 172 52.0
e 35 206 61.0
e 35 304 43.0
e 35 70 78.0
e 35 8 5.0
e 35 143 59.0
e 35 254 4.0
e 35 197 94.0
e 35 162 48.0
e 35 42 23.0
e 35 233 63.0
e 35 293 44.0
e 36 170 3.0
e 36 280 6.0
e 36 88 79.0
e 36 277 41.0
e 36 205 70.0
e 36 295 80.0
e 36 154 29.0
e 36 139 40.0
e 36 16 46.0
e 36 318 39.0
e 36 42 95.0
e 36 276 46.0
e 36 278 55.0
e 36 60 17.0
e 36 292 9.0
e 36 158 23.0
e 36 264 42.0
e 37 289 1.0
e 38 219 49.0
e 38 150 9.0
e 38 105 92.0
e 38 108 61.0
e 38 293 67.0
e 38 302 56.0
e 38 21 90.0
e 38 55 74.0
e 38 181 26.0
e 38 123 65.0
e 38 235 74.0
e 38 282 19.0
e 38 232 98.0
e 38 283 48.0
e 38 166 8.0
e 38 205 58.0
e 38 154 60.0
e 39 281 60.0
e 39 31 18.0
e 39 17 30.0
e 39 78 91.0
e 39 271 54.0
e 39 243 47.0
e 39 85 48.0
e 39 238 95.0
e 39 122 33.0
e 39 300 28.0
e 39 302 65.0
e 39 42 92.0
e 39 13 13.0
e 39 45 55.0
e 39 272 34.0
e 39 14 21.0
e 39 200 40.0
e 41 309 78.0
e 42 184 72.0
e 42 134 52.0
e 42 93 53.0
e 42 242 70.0
e 42 274 33.0
e 42 222 82.0
e 42 203 49.0
e 42 26 12.0
e 42 135 24.0
e 42 141 33.0
e 42 215 11.0
e 42 158 1.0
e 42 263 24.0
e 42 40 23.0
e 43 269 5.0
e 43 306 89.0
e 43 159 38.0
e 43 21 20.0
e 43 242 70.0
e 44 257 5.0
e 45 209 22.0
e 45 66 28.0
e 45 31 80.0
e 45 40 42.0
e 45 201 9.0
e 45 164 23.0
e 45 147 82.0
e 45 54 14.0
e 45 173 56.0
e 45 23 67.0
e 45 221 58.0
e 45 188 11.0
e 45 32 81.0
e 45 274 19.0
e 45 57 52.0
e 46 259 4.0
e 46 248 22.0
e 46 7 6.0
e 46 155 15.0
e 46 279 23.0
e 47 305 66.0
e 47 170 1.0
e 48 71 3.0
e 48 32 3.0
e 49 113 14.0
e 49 144 23.0
e 49 293 19.0
e 49 60 8.0
e 49 223 2.0
e 50 67 77.0
e 51 220 1.0
e 52 315 34.0
e 53 162 3.0
e 53 256 3.0
e 54 51 1.0
e 55 158 88.0
e 55 73 83.0
e 55 67 4.0
e 55 317 29.0
e 55 85 89.0
e 55 263 14.0
e 55 302 92.0
e 55 3 59.0
e 55 264 37.0
e 55 174 67.0
e 55 52 78.0
e 55 308 60.0
e 55 45 16.0
e 55 24 73.0
e 55 82 97.0
e 56 89 11.0
e 57 197 56.0
e 57 284 38.0
e 57 106 68.0
e 57 310 33.0
e 57 227 12.0
e 57 107 67.0
e 57 66 84.0
e 57 24 96.0
e 57 110 98.0
e 57 256 31.0
e 57 295 57.0
e 57 313 20.0
e 57 67 57.0
e 57 316 56.0
e 57 162 36.0
e 58 130 1.0
e 59 155 4.0
e 59 214 59.0
e 61 229 81.0
e 61 267 1.0
e 61 128 5.0
e 62 161 1.0
e 63 250 40.0
e 63 247 37.0
e 63 279 85.0
e 63 255 89.0
e 63 50 40.0
e 63 125 26.0
e 63 199 71.0
e 63 93 5.0
e 63 76 31.0
e 63 120 52.0
e 63 245 22.0
e 63 5 89.0
e 63 70 55.0
e 63 166 7.0
e 63 105 95.0
e 63 251 24.0
e 63 268 25.0
e 64 254 6.0
e 64 273 4.0
e 67 40 10.0
e 67 160 65.0
e 67 74 92.0
e 67 22 79.0
e 67 142 41.0
e 67 278 31.0
e 67 116 100.0
e 67 18 15.0
e 67 122 87.0
e 67 222 71.0
e 67 39 44.0
e 67 56 75.0
e 67 305 99.0
e 67 301 63.0
e 68 150 71.0
e 69 225 5.0
e 69 179 4.0
e 72 246 1.0
e 73 56 4.0
e 74 122 90.0
e 74 250 67.0
e 74 58 34.0
e 74 87 7.0
e 74 253 92.0
e 74 39 20.0
e 74 284 52.0
e 74 69 67.0
e 74 41 17.0
e 74 309 100.0
e 74 92 13.0
e 74 48 97.0
e 74 114 18.0
e 74 23 58.0
e 74 9 22.0
e 75 0 11.0
e 75 215 12.0
e 76 85 1.0
e 77 129 34.0
e 77 239 29.0
e 77 35 97.0
e 79 310 95.0
e 79 259 58.0
e 79 24 19.0
e 79 14 70.0
e 79 294 70.0
e 79 212 58.0
e 79 250 69.0
e 79 205 24.0
e 79 173 88.0
e 79 49 62.0
e 79 9 79.0
e 79 70 25.0
e 79 22 95.0
e 79 20 36.0
e 79 50 81.0
e 79 5 44.0
e 79 315 34.0
e 80 128 96.0
e 80 65 41.0
e 80 297 100.0
e 80 305 52.0
e 80 218 29.0
e 80 61 10.0
e 80 88 10.0
e 80 214 98.0
e 80 105 18.0
e 80 166 60.0
e 80 138 81.0
e 80 184 44.0
e 80 248 3.0
e 80 7 57.0
e 80 301 42.0
e 80 255 26.0
e 80 115 57.0
e 81 281 58.0
e 81 54 31.0
e 81 95 11.0
e 81 189 17.0
e 81 269 46.0
e 81 258 1.0
e 81 299 42.0
e 81 61 60.0
e 81 243 19.0
e 81 292 3.0
e 81 255 7.0
e 81 126 57.0
e 81 127 65.0
e 81 57 94.0
e 81 55 45.0
e 81 6 46.0
e 81 220 84.0
e 83 18 1.0
e 83 112 20.0
e 83 145 1.0
e 84 316 71.0
e 84 293 48.0
e 84 271 36.0
e 84 177 3.0
e 84 214 51.0
e 84 117 6.0
e 84 277 55.0
e 84 294 23.0
e 84 263 25.0
e 84 302 6.0
e 84 85 6.0
e 84 187 79.0
e 84 121 45.0
e 84 232 14.0
e 84 183 81.0
e 84 213 64.0
e 84 204 59.0
e 86 290 6.0
e 86 277 1.0
e 86 210 42.0
e 86 237 54.0
e 86 203 88.0
e 86 90 44.0
e 86 239 3.0
e 86 281 27.0
e 86 28 2.0
e 86 35 69.0
e 86 172 61.0
e 86 226 46.0
e 86 113 35.0
e 86 304 66.0
e 86 141 28.0
e 86 30 89.0
e 86 254 7.0
e 87 124 97.0
e 87 105 26.0
e 87 217 26.0
e 87 233 88.0
e 87 97 84.0
e 87 47 42.0
e 87 144 8.0
e 87 20 35.0
e 87 234 12.0
e 87 110 90.0
e 87 247 92.0
e 87 246 21.0
e 87 182 96.0
e 87 290 74.0
e 87 142 65.0
e 87 78 33.0
e 89 126 20.0
e 89 256 11.0
e 89 134 17.0
e 89 198 8.0
e 90 306 78.0
e 90 215 15.0
e 90 79 72.0
e 91 197 7.0
e 91 239 53.0
e 91 240 9.0
e 91 251 73.0
e 91 202 83.0
e 91 194 56.0
e 91 149 75.0
e 91 51 80.0
e 91 230 88.0
e 91 82 30.0
e 91 277 97.0
e 91 8 75.0
e 91 56 96.0
e 91 114 78.0
e 91 87 79.0
e 91 57 42.0
e 91 140 34.0
e 94 235 13.0
e 94 86 90.0
e 94 75 22.0
e 94 17 11.0
e 94 248 5.0
e 95 157 32.0
e 95 225 49.0
e 95 224 12.0
e 95 272 80.0
e 95 154 67.0
e 95 200 91.0
e 95 285 95.0
e 95 142 80.0
e 95 226 68.0
e 95 305 33.0
e 95 59 35.0
e 95 144 87.0
e 95 18 21.0
e 95 118 20.0
e 95 318 86.0
e 95 96 35.0
e 96 253 67.0
e 96 139 3.0
e 97 58 21.0
e 97 88 21.0
e 97 318 11.0
e 97 247 15.0
e 99 178 1.0
e 100 280 35.0
e 100 19 36.0
e 100 110 38.0
e 100 54 50.0
e 100 84 53.0
e 100 274 20.0
e 100 261 49.0
e 100 194 23.0
e 100 123 4.0
e 100 256 35.0
e 100 202 64.0
e 100 315 61.0
e 100 245 29.0
e 100 37 83.0
e 100 164 15.0
e 100 206 71.0
e 101 177 4.0
e 101 42 82.0
e 102 306 55.0
e 103 167 5.0
e 104 228 78.0
e 105 273 48.0
e 105 66 16.0
e 105 155 86.0
e 105 239 53.0
e 105 34 89.0
e 105 124 36.0
e 105 59 38.0
e 105 268 96.0
e 105 140 58.0
e 105 137 98.0
e 105 185 55.0
e 105 114 93.0
e 105 192 17.0
e 106 75 76.0
e 106 296 41.0
e 106 188 1.0
e 106 23 30.0
e 106 80 44.0
e 106 207 32.0
e 106 72 3.0
e 106 240 22.0
e 106 198 34.0
e 106 155 89.0
e 106 137 16.0
e 106 69 2.0
e 106 108 34.0
e 106 94 70.0
e 106 260 4.0
e 106 153 49.0
e 113 51 8.0
e 114 310 9.0
e 114 94 70.0
e 114 251 63.0
e 114 57 54.0
e 114 111 21.0
e 114 306 63.0
e 114 25 71.0
e 114 61 6.0
e 114 109 57.0
e 114 116 4.0
e 114 124 10.0
e 114 73 44.0
e 114 44 22.0
e 114 3 48.0
e 117 274 1.0
e 118 132 2.0
e 119 1 3.0
e 122 58 32.0
e 122 64 70.0
e 122 227 85.0
e 122 307 81.0
e 122 19 18.0
e 122 123 8.0
e 122 196 75.0
e 122 13 29.0
e 122 315 5.0
e 122 111 36.0
e 122 270 34.0
e 122 261 21.0
e 122 225 79.0
e 122 124 31.0
e 125 59 12.0
e 125 231 9.0
e 128 118 5.0
e 128 232 16.0
e 128 2 16.0
e 129 205 59.0
e 129 82 10.0
e 129 226 5.0
e 129 113 53.0
e 129 130 8.0
e 129 114 85.0
e 129 208 95.0
e 129 311 43.0
e 129 142 47.0
e 129 29 75.0
e 129 309 89.0
e 129 175 55.0
e 129 179 10.0
e 129 71 34.0
e 129 79 53.0
e 129 275 85.0
e 131 163 1.0
e 132 137 5.0
e 133 247 24.0
e 135 25 34.0
e 136 128 92.0
e 136 307 35.0
e 136 317 100.0
e 136 52 33.0
e 136 79 14.0
e 136 8 59.0
e 136 312 57.0
e 136 72 98.0
e 136 180 90.0
e 136 150 43.0
e 136 308 13.0
e 136 53 62.0
e 136 25 74.0
e 136 182 97.0
e 136 99 18.0
e 136 263 53.0
e 141 238 9.0
e 143 279 70.0
e 143 129 11.0
e 143 75 75.0
e 143 77 5.0
e 143 204 78.0
e 143 26 66.0
e 143 199 68.0
e 143 0 70.0
e 143 248 99.0
e 143 82 1.0
e 143 42 71.0
e 143 188 78.0
e 143 303 32.0
e 143 171 91.0
e 143 155 5.0
e 143 273 7.0
e 144 183 41.0
e 144 187 97.0
e 144 102 57.0
e 144 193 48.0
e 144 312 3.0
e 144 270 46.0
e 144 298 85.0
e 144 194 14.0
e 144 41 31.0
e 144 55 39.0
e 144 302 32.0
e 144 141 49.0
e 144 197 94.0
e 144 88 67.0
e 146 116 1.0
e 147 88 9.0
e 148 136 19.0
e 148 279 69.0
e 148 52 100.0
e 148 239 97.0
e 148 47 28.0
e 148 94 43.0
e 148 220 57.0
e 148 264 59.0
e 148 213 21.0
e 148 254 21.0
e 148 311 51.0
e 148 74 58.0
e 148 12 57.0
e 148 309 2.0
e 148 48 51.0
e 148 68 9.0
e 148 143 57.0
e 150 235 14.0
e 150 194 77.0
e 150 241 76.0
e 150 14 91.0
e 150 298 9.0
e 150 104 58.0
e 150 257 27.0
e 150 192 11.0
e 150 152 23.0
e 150 228 28.0
e 150 176 3.0
e 150 80 47.0
e 150 36 25.0
e 150 189 30.0
e 151 99 1.0
e 156 248 37.0
e 156 305 54.0
e 156 313 72.0
e 156 224 60.0
e 156 0 62.0
e 156 91 79.0
e 156 318 88.0
e 156 309 93.0
e 156 80 14.0
e 156 19 52.0
e 156 222 40.0
e 156 127 33.0
e 156 258 22.0
e 156 242 67.0
e 156 70 9.0
e 156 218 43.0
e 156 53 62.0
e 158 185 96.0
e 158 281 84.0
e 158 115 52.0
e 158 190 56.0
e 158 6 20.0
e 158 129 93.0
e 158 159 84.0
e 158 114 33.0
e 158 242 2.0
e 158 26 35.0
e 158 282 56.0
e 158 31 59.0
e 158 295 43.0
e 158 219 100.0
e 159 71 43.0
e 159 276 8.0
e 159 36 45.0
e 159 32 9.0
e 159 166 73.0
e 159 262 66.0
e 159 263 7.0
e 159 317 32.0
e 159 204 90.0
e 159 86 12.0
e 159 27 21.0
e 159 67 60.0
e 159 267 86.0
e 159 33 9.0
e 159 29 39.0
e 160 192 1.0
e 165 27 69.0
e 165 176 10.0
e 166 28 73.0
e 166 217 50.0
e 166 125 17.0
e 166 201 53.0
e 166 9 30.0
e 166 163 39.0
e 166 127 18.0
e 166 78 35.0
e 166 103 13.0
e 166 126 97.0
e 166 299 23.0
e 166 215 24.0
e 168 175 1.0
e 169 42 4.0
e 169 314 12.0
e 169 233 75.0
e 171 145 4.0
e 174 282 15.0
e 174 153 93.0
e 174 192 39.0
e 174 87 57.0
e 174 10 22.0
e 174 91 27.0
e 174 311 32.0
e 174 128 17.0
e 174 147 8.0
e 174 227 69.0
e 174 196 87.0
e 174 67 49.0
e 174 280 63.0
e 174 53 1.0
e 174 45 34.0
e 180 222 22.0
e 180 10 94.0
e 180 147 45.0
e 180 176 74.0
e 180 115 87.0
e 180 216 87.0
e 180 84 46.0
e 180 156 81.0
e 180 41 40.0
e 180 264 74.0
e 180 11 38.0
e 180 34 91.0
e 180 251 100.0
e 180 15 65.0
e 180 179 22.0
e 180 45 70.0
e 184 182 70.0
e 184 10 72.0
e 184 235 21.0
e 184 27 36.0
e 184 187 82.0
e 184 193 93.0
e 184 29 97.0
e 184 190 45.0
e 184 206 52.0
e 184 11 81.0
e 184 275 35.0
e 184 288 72.0
e 184 43 37.0
e 184 105 18.0
e 184 173 86.0
e 186 313 1.0
e 186 247 11.0
e 189 306 70.0
e 189 303 91.0
e 189 139 5.0
e 189 33 67.0
e 189 13 100.0
e 189 4 19.0
e 189 204 39.0
e 189 30 23.0
e 189 143 72.0
e 189 255 62.0
e 189 227 65.0
e 189 76 67.0
e 189 89 21.0
e 189 264 32.0
e 191 71 1.0
e 191 38 83.0
e 191 110 4.0
e 193 110 71.0
e 193 33 97.0
e 193 234 69.0
e 193 103 7.0
e 193 124 95.0
e 193 34 4.0
e 193 86 87.0
e 193 126 91.0
e 193 165 14.0
e 193 30 43.0
e 193 235 72.0
e 193 128 91.0
e 193 50 100.0
e 193 104 86.0
e 193 174 85.0
e 194 272 80.0
e 194 232 32.0
e 194 311 7.0
e 194 231 98.0
e 194 210 7.0
e 194 172 44.0
e 194 129 33.0
e 194 62 27.0
e 194 294 83.0
e 194 81 64.0
e 194 43 71.0
e 195 299 3.0
e 195 35 9.0
e 195 220 12.0
e 196 62 19.0
e 196 262 30.0
e 196 224 26.0
e 196 36 24.0
e 196 193 67.0
e 196 222 40.0
e 196 37 43.0
e 196 157 25.0
e 196 96 56.0
e 196 104 81.0
e 196 257 43.0
e 196 216 57.0
e 196 123 89.0
e 196 131 79.0
e 197 62 2.0
e 197 208 19.0
e 197 118 1.0
e 197 266 84.0
e 197 113 76.0
e 197 193 85.0
e 197 99 62.0
e 197 54 9.0
e 197 308 47.0
e 197 90 74.0
e 197 223 57.0
e 197 63 85.0
e 197 257 25.0
e 202 83 22.0
e 204 222 12.0
e 204 208 30.0
e 204 153 29.0
e 204 37 48.0
e 207 92 51.0
e 207 199 20.0
e 207 252 12.0
e 207 43 82.0
e 207 258 34.0
e 207 267 9.0
e 207 55 33.0
e 207 63 60.0
e 207 202 37.0
e 207 95 14.0
e 207 113 32.0
e 207 281 90.0
e 207 89 98.0
e 207 38 63.0
e 207 224 83.0
e 207 64 97.0
e 209 156 64.0
e 210 261 8.0
e 210 148 99.0
e 210 38 18.0
e 210 139 38.0
e 210 115 19.0
e 210 105 65.0
e 210 63 64.0
e 210 2 27.0
e 210 180 61.0
e 210 275 29.0
e 210 243 94.0
e 210 91 34.0
e 210 169 29.0
e 210 11 53.0
e 210 303 87.0
e 211 117 2.0
e 212 64 9.0
e 213 223 79.0
e 213 46 23.0
e 213 65 94.0
e 213 193 33.0
e 213 66 61.0
e 213 205 54.0
e 213 278 68.0
e 213 302 45.0
e 213 242 28.0
e 213 121 45.0
e 213 264 8.0
e 213 203 66.0
e 213 304 84.0
e 214 114 93.0
e 214 47 15.0
e 214 39 92.0
e 214 117 24.0
e 214 12 44.0
e 214 287 56.0
e 214 147 63.0
e 214 95 45.0
e 214 118 32.0
e 214 288 98.0
e 214 66 89.0
e 214 44 25.0
e 214 303 82.0
e 218 163 5.0
e 222 44 96.0
e 222 46 48.0
e 222 95 35.0
e 222 263 96.0
e 222 197 96.0
e 222 300 62.0
e 222 181 35.0
e 222 122 7.0
e 222 73 32.0
e 222 96 66.0
e 222 206 15.0
e 227 280 31.0
e 227 92 78.0
e 227 109 30.0
e 227 105 20.0
e 227 46 92.0
e 227 15 60.0
e 227 301 33.0
e 227 148 19.0
e 227 249 46.0
e 227 222 67.0
e 227 67 69.0
e 227 103 70.0
e 227 247 84.0
e 228 278 17.0
e 228 269 5.0
e 228 299 96.0
e 228 156 62.0
e 228 96 17.0
e 228 301 55.0
e 228 218 83.0
e 228 15 36.0
e 228 68 6.0
e 228 124 73.0
e 228 109 75.0
e 228 164 64.0
e 228 239 5.0
e 228 216 30.0
e 228 48 51.0
e 229 2 60.0
e 229 316 63.0
e 229 239 15.0
e 229 276 35.0
e 229 309 99.0
e 229 287 69.0
e 229 191 91.0
e 229 319 46.0
e 229 135 57.0
e 229 261 69.0
e 229 97 65.0
e 229 225 13.0
e 229 77 24.0
e 229 227 50.0
e 229 3 2.0
e 229 240 22.0
e 230 49 48.0
e 230 183 45.0
e 230 68 3.0
e 230 69 71.0
e 230 151 24.0
e 230 207 21.0
e 230 107 80.0
e 230 290 66.0
e 230 234 55.0
e 230 300 65.0
e 230 72 55.0
e 230 158 16.0
e 230 73 78.0
e 230 74 22.0
e 230 218 55.0
e 230 120 46.0
e 233 151 38.0
e 233 319 24.0
e 233 49 27.0
e 233 136 1.0
e 233 213 43.0
e 233 304 84.0
e 233 246 67.0
e 233 144 93.0
e 233 74 45.0
e 233 278 9.0
e 233 242 91.0
e 233 234 49.0
e 233 164 50.0
e 233 275 64.0
e 236 76 82.0
e 236 172 35.0
e 236 87 71.0
e 236 230 48.0
e 236 294 63.0
e 236 152 70.0
e 236 120 79.0
e 236 77 54.0
e 236 78 32.0
e 236 130 84.0
e 236 296 79.0
e 236 273 16.0
e 236 135 12.0
e 236 81 49.0
e 236 108 78.0
e 236 176 11.0
e 236 170 79.0
e 237 238 3.0
e 239 100 74.0
e 239 134 27.0
e 239 76 5.0
e 239 281 29.0
e 239 222 16.0
e 239 81 53.0
e 239 194 50.0
e 239 164 22.0
e 239 83 99.0
e 239 267 39.0
e 240 89 26.0
e 240 187 68.0
e 240 148 60.0
e 240 247 29.0
e 240 185 83.0
e 240 252 58.0
e 240 207 54.0
e 240 83 29.0
e 240 145 12.0
e 240 281 96.0
e 240 84 35.0
e 240 90 61.0
e 240 230 81.0
e 242 90 82.0
e 242 97 51.0
e 242 267 76.0
e 242 98 7.0
e 242 214 21.0
e 242 282 21.0
e 242 229 59.0
e 242 100 91.0
e 242 296 76.0
e 242 101 30.0
e 242 175 54.0
e 252 210 13.0
e 252 314 95.0
e 252 214 75.0
e 252 165 19.0
e 252 258 72.0
e 252 153 33.0
e 252 97 81.0
e 252 117 37.0
e 252 121 6.0
e 252 283 30.0
e 252 229 72.0
e 252 98 92.0
e 252 100 98.0
e 252 101 73.0
e 252 315 79.0
e 253 98 20.0
e 253 252 23.0
e 253 101 7.0
e 253 296 39.0
e 253 172 35.0
e 253 137 33.0
e 253 269 58.0
e 253 177 87.0
e 253 102 10.0
e 253 106 19.0
e 253 217 23.0
e 253 107 18.0
e 253 108 53.0
e 253 140 47.0
e 253 119 21.0
e 264 102 40.0
e 264 132 96.0
e 264 106 61.0
e 264 227 68.0
e 264 249 27.0
e 264 119 69.0
e 264 217 35.0
e 264 120 4.0
e 264 121 77.0
e 264 122 28.0
e 264 133 44.0
e 265 311 7.0
e 265 106 4.0
e 268 184 83.0
e 268 130 75.0
e 268 141 51.0
e 268 119 8.0
e 268 213 96.0
e 268 257 36.0
e 268 233 64.0
e 268 294 74.0
e 268 261 40.0
e 268 122 31.0
e 268 123 25.0
e 268 241 23.0
e 268 125 23.0
e 268 216 30.0
e 268 188 61.0
e 269 166 61.0
e 269 125 42.0
e 269 281 18.0
e 269 131 1.0
e 278 133 30.0
e 278 131 79.0
e 278 227 91.0
e 278 202 31.0
e 278 249 9.0
e 278 199 2.0
e 278 132 33.0
e 278 134 34.0
e 278 135 17.0
e 278 136 93.0
e 278 231 2.0
e 278 315 91.0
e 281 228 64.0
e 281 236 44.0
e 281 237 66.0
e 281 132 25.0
e 281 133 99.0
e 281 283 69.0
e 281 137 81.0
e 281 138 98.0
e 281 141 39.0
e 286 142 9.0
e 287 312 47.0
e 287 209 6.0
e 287 138 23.0
e 288 294 23.0
e 288 304 50.0
e 288 142 45.0
e 288 157 68.0
e 288 262 38.0
e 288 143 48.0
e 288 144 46.0
e 288 305 54.0
e 288 145 19.0
e 288 146 21.0
e 288 149 1.0
e 288 207 97.0
e 288 150 89.0
e 288 151 43.0
e 288 316 92.0
e 290 167 22.0
e 290 144 41.0
e 290 237 15.0
e 290 146 52.0
e 290 152 86.0
e 290 186 15.0
e 290 236 81.0
e 290 252 8.0
e 290 149 26.0
e 290 150 68.0
e 290 157 58.0
e 290 158 12.0
e 290 258 90.0
e 290 209 26.0
e 291 297 38.0
e 291 222 73.0
e 291 146 53.0
e 291 158 8.0
e 291 149 96.0
e 291 150 16.0
e 291 152 78.0
e 291 159 70.0
e 291 260 58.0
e 291 160 35.0
e 291 161 20.0
e 291 165 37.0
e 291 166 21.0
e 291 276 47.0
e 291 174 87.0
e 291 167 76.0
e 295 159 97.0
e 295 247 2.0
e 295 283 43.0
e 295 180 66.0
e 295 214 87.0
e 295 204 78.0
e 295 278 85.0
e 295 281 30.0
e 295 160 12.0
e 295 218 99.0
e 295 161 85.0
e 295 219 21.0
e 295 297 33.0
e 295 166 70.0
e 303 159 37.0
e 303 223 95.0
e 303 160 55.0
e 303 161 31.0
e 303 168 69.0
e 303 169 87.0
e 303 170 83.0
e 303 242 91.0
e 303 171 16.0
e 303 173 24.0
e 303 174 21.0
e 303 239 42.0
e 303 271 45.0
e 304 168 70.0
e 304 236 13.0
e 304 169 97.0
e 304 171 98.0
e 304 175 84.0
e 304 176 36.0
e 304 177 65.0
e 304 197 48.0
e 304 180 84.0
e 304 181 83.0
e 304 182 7.0
e 304 315 61.0
e 305 228 73.0
e 305 168 28.0
e 305 171 22.0
e 305 181 19.0
e 305 184 37.0
e 305 185 10.0
e 305 252 43.0
e 305 244 78.0
e 305 186 87.0
e 305 189 31.0
e 305 259 22.0
e 306 184 74.0
e 306 264 80.0
e 306 278 34.0
e 306 186 20.0
e 306 190 55.0
e 306 191 19.0
e 306 259 95.0
e 306 194 49.0
e 306 195 82.0
e 306 196 95.0
e 306 1 60.0
e 306 197 46.0
e 308 189 15.0
e 308 190 12.0
e 308 191 22.0
e 308 267 34.0
e 308 194 77.0
e 308 262 93.0
e 308 309 78.0
e 308 195 87.0
e 308 232 32.0
e 308 297 2.0
e 308 237 31.0
e 308 196 77.0
e 308 200 19.0
e 309 189 60.0
e 309 190 54.0
e 309 239 4.0
e 309 195 57.0
e 309 196 43.0
e 309 316 31.0
e 309 228 43.0
e 309 310 28.0
e 309 230 22.0
e 309 200 51.0
e 312 200 48.0
e 312 201 76.0
e 312 229 51.0
e 312 297 94.0
e 312 307 80.0
e 312 202 80.0
e 312 204 7.0
e 312 209 97.0
e 312 295 32.0
e 312 212 3.0
e 312 210 47.0
e 312 211 71.0
e 315 4 91.0
e 315 201 15.0
e 315 308 10.0
e 315 204 37.0
e 315 244 74.0
e 315 210 38.0
e 315 314 22.0
e 315 298 1.0
e 315 211 46.0
e 316 211 51.0
e 316 233 2.0
e 316 212 72.0
e 316 213 100.0
e 316 239 35.0
e 316 240 67.0
e 316 241 97.0
e 316 242 39.0
e 316 244 3.0
e 316 245 35.0
e 316 269 18.0
